problems/csplib-prob015/SchursLemma-models/noch/O2/lingeling/model_1_4-5-14-solution000001.eprime-solution
language ESSENCE' 1.0

letting boxes_PartitionOccurrence_FirstIndex be [1, 3, 5, 6, 7; int(1..5)]
letting boxes_PartitionOccurrence_NumParts be 5
letting boxes_PartitionOccurrence_PartSizes be [2, 2, 3, 3, 4; int(1..5)]
letting boxes_PartitionOccurrence_WhichPart be [1, 1, 2, 2, 3, 4, 5, 5, 5, 3, 3, 4, 5, 4; int(1..14)]
