problems/csplib-prob015/SchursLemma-models/noch/O2/lingeling/model_1_4-5-14-solution000001.solution
language Essence 1.3

letting boxes be partition({1, 2}, {3, 4}, {5, 10, 11}, {6, 12, 14}, {7, 8, 9, 13})
